benchmarks/bfuzz0/3007212419938189101022074662570311840.smt2
(set-logic QF_FP)
(declare-const x0 (_ FloatingPoint 11 53))
(declare-const x1 (_ FloatingPoint 11 53))
(declare-const x2 (_ FloatingPoint 11 53))
(declare-const x3 (_ FloatingPoint 11 53))
(declare-const x4 (_ FloatingPoint 11 53))
(declare-const x5 (_ FloatingPoint 11 53))
(declare-const x6 (_ FloatingPoint 11 53))
(declare-const x7 (_ FloatingPoint 11 53))
(declare-const x8 (_ FloatingPoint 11 53))
(declare-const x9 (_ FloatingPoint 11 53))
(declare-const x10 (_ FloatingPoint 11 53))
(declare-const x11 (_ FloatingPoint 11 53))
(declare-const x12 (_ FloatingPoint 11 53))
(declare-const x13 (_ FloatingPoint 11 53))
(declare-const x14 (_ FloatingPoint 11 53))
(declare-const x15 (_ FloatingPoint 11 53))
(declare-const x16 (_ FloatingPoint 11 53))
(declare-const x17 (_ FloatingPoint 11 53))
(declare-const x18 (_ FloatingPoint 11 53))
(declare-const x19 (_ FloatingPoint 11 53))
(assert (fp.gt (fp.neg x19) (fp.neg x9)))
(assert (fp.eq (fp.add RNE x9 x19) (fp.neg x18)))
(assert (fp.gt (fp.sub RNE x12 x12) (fp.add RNE x11 x18)))
(assert (fp.gt (fp.neg x0) (fp.mul RNE x2 x19)))
(assert (fp.geq (fp.neg x15) (fp.mul RNE x5 x7)))
(assert (fp.eq (fp.sub RNE x18 x3) (fp.sub RNE x8 x16)))
(assert (fp.gt (fp.div RNE x8 x0) (fp.mul RNE x12 x1)))
(assert (fp.lt (fp.mul RNE x10 x6) (fp.sub RNE x8 x11)))
(assert (fp.eq (fp.div RNE x0 x2) (fp.sub RNE x17 x17)))
(assert (fp.leq (fp.div RNE x3 x2) (fp.sub RNE x17 x8)))
(assert (fp.geq (fp.neg x4) (fp.div RNE x3 x5)))
(assert (fp.geq (fp.sub RNE x18 x17) (fp.sub RNE x0 x5)))
(assert (fp.eq (fp.mul RNE x6 x19) (fp.add RNE x9 x18)))
(assert (fp.leq (fp.add RNE x3 x15) (fp.sub RNE x16 x5)))
(assert (fp.lt (fp.sub RNE x12 x18) (fp.add RNE x17 x12)))
(assert (fp.leq (fp.mul RNE x8 x4) (fp.mul RNE x13 x1)))
(assert (fp.leq (fp.sub RNE x14 x3) (fp.mul RNE x2 x18)))
(assert (fp.lt (fp.neg x6) (fp.mul RNE x5 x12)))
(assert (fp.eq (fp.div RNE x14 x19) (fp.div RNE x3 x7)))
(check-sat)
