db/data/3007212419938189101022074662570311840.z3.out
-------------------
2500.105720489
